HUN,8,6,469
2,16,0,26,3,31,1,82,5,47,4,76
3,88,0,87,1,43,2,5,5,44,4,8
2,97,1,16,5,10,0,1,3,97,4,98
2,73,5,11,4,69,1,33,0,26,3,52
0,40,2,56,1,62,3,79,5,78,4,93
0,6,4,69,2,32,5,91,3,59,1,94
2,73,5,56,1,77,3,38,0,66,4,60
1,6,5,69,0,11,4,54,2,90,3,59
